; benchmark generated from python API
(set-info :status unknown)
(declare-fun W_S2_V6 () Bool)
(declare-fun W_S2_V4 () Bool)
(declare-fun W_S2_V2 () Bool)
(declare-fun W_S2_V3 () Bool)
(declare-fun W_S2_V1 () Bool)
(declare-fun W_S1_V6 () Bool)
(declare-fun W_S1_V5 () Bool)
(declare-fun W_S1_V2 () Bool)
(declare-fun W_S1_V3 () Bool)
(declare-fun W_S1_V1 () Bool)
(declare-fun R_S1_V1 () Bool)
(declare-fun R_S2_V6 () Bool)
(declare-fun R_S2_V4 () Bool)
(declare-fun R_S2_V5 () Bool)
(declare-fun R_S2_V2 () Bool)
(declare-fun R_S2_V3 () Bool)
(declare-fun R_S2_V1 () Bool)
(declare-fun R_E1_V6 () Bool)
(declare-fun R_E1_V4 () Bool)
(declare-fun R_E1_V5 () Bool)
(declare-fun R_E1_V2 () Bool)
(declare-fun R_E1_V3 () Bool)
(declare-fun R_E1_V1 () Bool)
(declare-fun DISJ_W_S2_R_E1 () Bool)
(declare-fun DISJ_W_S2_R_S2 () Bool)
(declare-fun R_S1_V6 () Bool)
(declare-fun R_S1_V4 () Bool)
(declare-fun R_S1_V5 () Bool)
(declare-fun R_S1_V2 () Bool)
(declare-fun R_S1_V3 () Bool)
(declare-fun DISJ_W_S2_R_S1 () Bool)
(declare-fun DISJ_W_S1_W_S2 () Bool)
(declare-fun DISJ_W_S1_R_E1 () Bool)
(declare-fun DISJ_W_S1_R_S2 () Bool)
(declare-fun DISJ_W_S1_R_S1 () Bool)
(declare-fun W_S2_V5 () Bool)
(declare-fun W_S1_V4 () Bool)
(assert
 (let (($x5954 (forall ((V1_0 Int) )(forall ((V3_0 Int) )(forall ((V2_0 Int) )(forall ((V5_0 Int) )(forall ((V4_0 Int) )(forall ((V6_0 Int) )(forall ((MW_S1_V1 Bool) )(forall ((MW_S1_V3 Bool) )(forall ((MW_S1_V2 Bool) )(forall ((MW_S1_V5 Bool) )(forall ((MW_S1_V4 Bool) )(forall ((MW_S1_V6 Bool) )(forall ((MW_S2_V1 Bool) )(forall ((MW_S2_V3 Bool) )(forall ((MW_S2_V2 Bool) )(forall ((MW_S2_V5 Bool) )(forall ((MW_S2_V4 Bool) )(forall ((MW_S2_V6 Bool) )(forall ((S1_V1_!158 Int) )(forall ((S1_V1_!171 Int) )(forall ((S2_V5_!167 Int) )(forall ((S2_V5_!180 Int) )(forall ((S1_V3_!159 Int) )(forall ((S1_V3_!172 Int) )(forall ((S1_V2_!160 Int) )(forall ((S1_V2_!173 Int) )(forall ((E1_!157 Int) )(forall ((E1_!170 Int) )(forall ((E1_!183 Int) )(forall ((S2_V4_!168 Int) )(forall ((S2_V4_!181 Int) )(forall ((S2_V6_!169 Int) )(forall ((S2_V6_!182 Int) )(forall ((S1_V5_!161 Int) )(forall ((S1_V5_!174 Int) )(forall ((S2_V1_!164 Int) )(forall ((S2_V1_!177 Int) )(forall ((S1_V4_!162 Int) )(forall ((S1_V4_!175 Int) )(forall ((S2_V3_!165 Int) )(forall ((S2_V3_!178 Int) )(forall ((S2_V2_!166 Int) )(forall ((S2_V2_!179 Int) )(forall ((S1_V6_!163 Int) )(forall ((S1_V6_!176 Int) )(let ((?x1588 (ite MW_S1_V6 S1_V6_!176 V6_0)))
 (let ((?x2258 (ite MW_S2_V6 S2_V6_!182 ?x1588)))
 (let ((?x5238 (ite MW_S1_V4 S1_V4_!175 V4_0)))
 (let ((?x3994 (ite MW_S2_V4 S2_V4_!181 ?x5238)))
 (let ((?x1442 (ite MW_S1_V5 S1_V5_!174 V5_0)))
 (let ((?x2659 (ite MW_S2_V5 S2_V5_!180 ?x1442)))
 (let ((?x3661 (ite MW_S1_V2 S1_V2_!173 V2_0)))
 (let ((?x1813 (ite MW_S2_V2 S2_V2_!179 ?x3661)))
 (let ((?x1100 (ite MW_S1_V2 S1_V2_!160 V2_0)))
 (let ((?x4510 (ite MW_S2_V2 S2_V2_!166 ?x1100)))
 (let (($x3271 (= (ite MW_S2_V3 S2_V3_!165 (+ 1 (ite MW_S1_V3 S1_V3_!159 V3_0))) (+ (ite MW_S2_V3 S2_V3_!178 (ite MW_S1_V3 S1_V3_!172 V3_0)) ?x1813 (* (- 1) E1_!183)))))
 (let ((?x602 (ite MW_S1_V1 S1_V1_!171 E1_!170)))
 (let ((?x3096 (ite MW_S2_V1 S2_V1_!177 ?x602)))
 (let ((?x881 (ite MW_S1_V1 S1_V1_!158 E1_!157)))
 (let ((?x257 (ite MW_S2_V1 S2_V1_!164 ?x881)))
 (let (($x1840 (and (= ?x257 ?x3096) $x3271 (= ?x4510 ?x1813) (= (ite MW_S2_V5 S2_V5_!167 (ite MW_S1_V5 S1_V5_!161 V5_0)) ?x2659) (= (ite MW_S2_V4 S2_V4_!168 (ite MW_S1_V4 S1_V4_!162 V4_0)) ?x3994) (= (ite MW_S2_V6 S2_V6_!169 (ite MW_S1_V6 S1_V6_!163 V6_0)) ?x2258))))
 (let (($x5278 (and (not (<= V2_0 E1_!157)) (>= ?x257 (+ (- 1) ?x4510)) (not (<= V2_0 E1_!170)) (>= ?x3096 (+ (- 1) ?x1813)))))
 (let (($x3269 (not R_S2_V3)))
 (let (($x1220 (and (or (not R_S2_V1) (= ?x602 ?x881)) (or $x3269 (= (ite MW_S1_V3 S1_V3_!172 V3_0) (+ 1 (ite MW_S1_V3 S1_V3_!159 V3_0)))) (or (not R_S2_V2) (= ?x3661 ?x1100)) (or (not R_S2_V5) (= ?x1442 (ite MW_S1_V5 S1_V5_!161 V5_0))) (or (not R_S2_V4) (= ?x5238 (ite MW_S1_V4 S1_V4_!162 V4_0))) (or (not R_S2_V6) (= ?x1588 (ite MW_S1_V6 S1_V6_!163 V6_0))))))
 (let (($x2594 (not $x1220)))
 (let (($x4960 (or $x3269 (= (ite MW_S1_V3 S1_V3_!159 V3_0) (+ (- 1) (ite MW_S1_V3 S1_V3_!172 V3_0))))))
 (let (($x2989 (and (or (not R_S2_V1) (= ?x881 ?x602)) $x4960 (or (not R_S2_V2) (= ?x1100 ?x3661)) (or (not R_S2_V5) (= (ite MW_S1_V5 S1_V5_!161 V5_0) ?x1442)) (or (not R_S2_V4) (= (ite MW_S1_V4 S1_V4_!162 V4_0) ?x5238)) (or (not R_S2_V6) (= (ite MW_S1_V6 S1_V6_!163 V6_0) ?x1588)))))
 (let (($x5821 (not $x2989)))
 (let (($x913 (and (or (not R_E1_V1) (= V1_0 (+ 1 ?x3096))) (or (not R_E1_V3) (= V3_0 (ite MW_S2_V3 S2_V3_!178 (ite MW_S1_V3 S1_V3_!172 V3_0)))) (or (not R_E1_V2) (= V2_0 ?x1813)) (or (not R_E1_V5) (= V5_0 ?x2659)) (or (not R_E1_V4) (= V4_0 ?x3994)) (or (not R_E1_V6) (= V6_0 ?x2258)))))
 (let (($x4654 (not $x913)))
 (let (($x5370 (= E1_!157 E1_!170)))
 (let (($x2088 (and (or (not (or (not R_S1_V1) $x5370)) (= S1_V1_!158 S1_V1_!171)) (or $x2594 (= S2_V5_!180 S2_V5_!167)) (or (not (or (not R_S1_V1) $x5370)) (= S1_V3_!159 S1_V3_!172)) (or (not (or (not R_S1_V1) (= E1_!170 E1_!157))) (= S1_V2_!173 S1_V2_!160)) $x5370 (or $x4654 (= E1_!157 E1_!183)) (or $x4654 (= E1_!170 E1_!183)) (or $x5821 (= S2_V4_!168 S2_V4_!181)) (or $x2594 (= S2_V6_!182 S2_V6_!169)) (or (not (or (not R_S1_V1) (= E1_!170 E1_!157))) (= S1_V5_!174 S1_V5_!161)) (or $x2594 (= S2_V1_!177 S2_V1_!164)) (or (not (or (not R_S1_V1) (= E1_!170 E1_!157))) (= S1_V4_!175 S1_V4_!162)) (or $x5821 (= S2_V3_!165 S2_V3_!178)) (or $x2594 (= S2_V2_!179 S2_V2_!166)) (or (not (or (not R_S1_V1) (= E1_!170 E1_!157))) (= S1_V6_!176 S1_V6_!163)) (or (not MW_S1_V1) W_S1_V1) (or (not MW_S1_V3) W_S1_V3) (or (not MW_S1_V2) W_S1_V2) (or (not MW_S1_V5) W_S1_V5) (or (not MW_S1_V6) W_S1_V6) (or (not MW_S2_V1) W_S2_V1) (or (not MW_S2_V3) W_S2_V3) (or (not MW_S2_V2) W_S2_V2) (or (not MW_S2_V4) W_S2_V4) (or (not MW_S2_V6) W_S2_V6))))
 (or (not $x2088) (not $x5278) $x1840)))))))))))))))))))))))))))))
 )
 )
 )
 )
 )
 )
 )
 )
 )
 )
 )
 )
 )
 )
 )
 )
 )
 )
 )
 )
 )
 )
 )
 )
 )
 )
 )
 )
 )
 )
 )
 )
 )
 )
 )
 )
 )
 )
 )
 )
 )
 )
 )
 )
 ))
 (let (($x5676 (and W_S2_V6 R_E1_V6)))
 (let (($x1774 (and W_S2_V4 R_E1_V4)))
 (let (($x733 (and W_S2_V2 R_E1_V2)))
 (let (($x3872 (and W_S2_V3 R_E1_V3)))
 (let (($x4254 (and W_S2_V1 R_E1_V1)))
 (let (($x1511 (= DISJ_W_S2_R_E1 (not (or $x4254 $x3872 $x733 R_E1_V5 $x1774 $x5676)))))
 (let (($x4367 (and W_S2_V6 R_S2_V6)))
 (let (($x2873 (and W_S2_V4 R_S2_V4)))
 (let (($x4981 (and W_S2_V2 R_S2_V2)))
 (let (($x961 (and W_S2_V3 R_S2_V3)))
 (let (($x5537 (and W_S2_V1 R_S2_V1)))
 (let (($x2060 (= DISJ_W_S2_R_S2 (not (or $x5537 $x961 $x4981 R_S2_V5 $x2873 $x4367)))))
 (let (($x3924 (and W_S2_V6 R_S1_V6)))
 (let (($x873 (and W_S2_V4 R_S1_V4)))
 (let (($x4855 (and W_S2_V2 R_S1_V2)))
 (let (($x287 (and W_S2_V3 R_S1_V3)))
 (let (($x498 (and W_S2_V1 R_S1_V1)))
 (let (($x3626 (= DISJ_W_S2_R_S1 (not (or $x498 $x287 $x4855 R_S1_V5 $x873 $x3924)))))
 (let (($x2628 (and W_S1_V6 W_S2_V6)))
 (let (($x2281 (and W_S1_V2 W_S2_V2)))
 (let (($x840 (and W_S1_V3 W_S2_V3)))
 (let (($x2854 (and W_S1_V1 W_S2_V1)))
 (let (($x4504 (= DISJ_W_S1_W_S2 (not (or $x2854 $x840 $x2281 W_S1_V5 W_S2_V4 $x2628)))))
 (let (($x3649 (and W_S1_V6 R_E1_V6)))
 (let (($x2556 (and W_S1_V5 R_E1_V5)))
 (let (($x5974 (and W_S1_V2 R_E1_V2)))
 (let (($x5243 (and W_S1_V3 R_E1_V3)))
 (let (($x3677 (and W_S1_V1 R_E1_V1)))
 (let (($x1601 (= DISJ_W_S1_R_E1 (not (or $x3677 $x5243 $x5974 $x2556 R_E1_V4 $x3649)))))
 (let (($x519 (and W_S1_V6 R_S2_V6)))
 (let (($x328 (and W_S1_V5 R_S2_V5)))
 (let (($x2322 (and W_S1_V2 R_S2_V2)))
 (let (($x5649 (and W_S1_V3 R_S2_V3)))
 (let (($x4921 (and W_S1_V1 R_S2_V1)))
 (let (($x2486 (= DISJ_W_S1_R_S2 (not (or $x4921 $x5649 $x2322 $x328 R_S2_V4 $x519)))))
 (let (($x2527 (and W_S1_V6 R_S1_V6)))
 (let (($x520 (and W_S1_V5 R_S1_V5)))
 (let (($x883 (and W_S1_V2 R_S1_V2)))
 (let (($x380 (and W_S1_V3 R_S1_V3)))
 (let (($x1929 (and W_S1_V1 R_S1_V1)))
 (let (($x6010 (= DISJ_W_S1_R_S1 (not (or $x1929 $x380 $x883 $x520 R_S1_V4 $x2527)))))
 (and W_S1_V4 W_S2_V5 $x6010 $x2486 $x1601 $x4504 $x3626 $x2060 $x1511 $x5954))))))))))))))))))))))))))))))))))))))))))))
(check-sat)
